LAMMPS (29 Sep 2021 - Update 2)
OMP_NUM_THREADS environment is not set. Defaulting to 1 thread. (src/comm.cpp:98)
  using 1 OpenMP thread(s) per MPI task
# PART A - ENERGY MINIMIZATION
# 1) Initialization

units lj # Lennard-Jones (LJ) units are a dimensionless system of units.

dimension 3 # 3D simulation

atom_style atomic


# atoms will be interacting through a Lennard-Jones potential with a cut-off equal to rc=2.5 :
pair_style lj/cut 2.5

# the periodic boundary conditions will be used along all three directions of space (the 3 p stand for x, y, and z, respectively).
boundary p p p

# 2) System definition
region simulation_box block -20 20 -20 20 -20 20
create_box 2 simulation_box
Created orthogonal box = (-20.000000 -20.000000 -20.000000) to (20.000000 20.000000 20.000000)
  1 by 2 by 2 MPI processor grid
create_atoms 1 random 1500 341341 simulation_box
Created 1500 atoms
  using lattice units in orthogonal box = (-20.000000 -20.000000 -20.000000) to (20.000000 20.000000 20.000000)
  create_atoms CPU = 0.001 seconds
create_atoms 2 random 100 127569 simulation_box
Created 100 atoms
  using lattice units in orthogonal box = (-20.000000 -20.000000 -20.000000) to (20.000000 20.000000 20.000000)
  create_atoms CPU = 0.000 seconds

# 3) Simulation settings
mass 1 1
mass 2 1
pair_coeff 1 1 1.0 1.0
pair_coeff 2 2 0.5 3.0

# 4) Visualization
thermo 10
thermo_style custom step temp pe ke etotal press


# 5) Run
minimize 1.0e-4 1.0e-6 1000 10000
WARNING: Using 'neigh_modify every 1 delay 0 check yes' setting during minimization (src/min.cpp:188)
Neighbor list info ...
  update every 1 steps, delay 0 steps, check yes
  max neighbors/atom: 2000, page size: 100000
  master list distance cutoff = 2.8
  ghost atom cutoff = 2.8
  binsize = 1.4, bins = 29 29 29
  1 neighbor lists, perpetual/occasional/extra = 1 0 0
  (1) pair lj/cut, perpetual
      attributes: half, newton on
      pair build: half/bin/atomonly/newton
      stencil: half/bin/3d
      bin: standard
Per MPI rank memory allocation (min/avg/max) = 4.238 | 4.239 | 4.239 Mbytes
Step Temp PotEng KinEng TotEng Press 
       0            0     78840982            0     78840982      7884122 
      10            0    169.90532            0    169.90532    17.187291 
      20            0  -0.22335386            0  -0.22335386 -0.0034892297 
      30            0  -0.31178296            0  -0.31178296 -0.0027290466 
      40            0  -0.38135002            0  -0.38135002 -0.0016419218 
      50            0  -0.42686621            0  -0.42686621 -0.0015219081 
      60            0  -0.46153953            0  -0.46153953 -0.0010659992 
      70            0  -0.48581568            0  -0.48581568 -0.0014849169 
      80            0  -0.51799572            0  -0.51799572 -0.0012995545 
      90            0   -0.5527325            0   -0.5527325 -0.0013134141 
     100            0  -0.57968749            0  -0.57968749 -0.0011100224 
     110            0  -0.60215558            0  -0.60215558 -0.00098759057 
     120            0  -0.62309042            0  -0.62309042 -0.00087882185 
     130            0  -0.64171723            0  -0.64171723 -0.00079695034 
     140            0  -0.66426829            0  -0.66426829 -0.00078657223 
     150            0  -0.68078115            0  -0.68078115 -0.00057901351 
     160            0  -0.69138844            0  -0.69138844 -0.0005242102 
     170            0  -0.69940095            0  -0.69940095 -0.00052258541 
     180            0  -0.71190598            0  -0.71190598 -0.00065473834 
     190            0  -0.72442096            0  -0.72442096 -0.00077621635 
     200            0  -0.74203963            0  -0.74203963 -0.00081082284 
     210            0  -0.75438475            0  -0.75438475 -0.00053973821 
     220            0  -0.76773332            0  -0.76773332 -0.00074283005 
     230            0  -0.78470113            0  -0.78470113 -0.00074288182 
     240            0  -0.80137338            0  -0.80137338 -0.00059642377 
     250            0  -0.81691136            0  -0.81691136 -0.0005260876 
     260            0  -0.82736454            0  -0.82736454 -0.00046074466 
     270            0  -0.84121874            0  -0.84121874 -0.00044622395 
     280            0  -0.85313309            0  -0.85313309 -0.00035558244 
     290            0  -0.86187245            0  -0.86187245 -0.00044263179 
     300            0   -0.8709574            0   -0.8709574 -0.00041501493 
     310            0  -0.88519519            0  -0.88519519 -0.00049355037 
     320            0   -0.8950388            0   -0.8950388 -0.00035817629 
     330            0  -0.90575597            0  -0.90575597 -0.00028386214 
     340            0  -0.91729147            0  -0.91729147 -0.00032979068 
     350            0  -0.92484345            0  -0.92484345 -0.00031368151 
     360            0    -0.934714            0    -0.934714 -0.00039272529 
     370            0  -0.94284465            0  -0.94284465 -0.00037029301 
     380            0  -0.95327077            0  -0.95327077 -0.00041503367 
     384            0  -0.95517615            0  -0.95517615 -0.00029974323 
Loop time of 0.0373841 on 4 procs for 384 steps with 1600 atoms

98.9% CPU use with 4 MPI tasks x 1 OpenMP threads

Minimization stats:
  Stopping criterion = linesearch alpha is zero
  Energy initial, next-to-last, final = 
      78840982.4763612 -0.955176147141931 -0.955176147141931
  Force two-norm initial, final = 1.6033542e+13 10.109323
  Force max component initial, final = 1.0518609e+13 2.2637223
  Final line search alpha, max atom move = 1.6851437e-07 3.8146973e-07
  Iterations, force evaluations = 384 805

MPI task timing breakdown:
Section |  min time  |  avg time  |  max time  |%varavg| %total
---------------------------------------------------------------
Pair    | 0.003602   | 0.0047041  | 0.0053601  |   1.0 | 12.58
Neigh   | 0.0073184  | 0.008863   | 0.0098417  |   1.0 | 23.71
Comm    | 0.012468   | 0.013976   | 0.01664    |   1.4 | 37.39
Output  | 0.00031342 | 0.00057445 | 0.001311   |   0.0 |  1.54
Modify  | 0          | 0          | 0          |   0.0 |  0.00
Other   |            | 0.009266   |            |       | 24.79

Nlocal:        400.000 ave         426 max         362 min
Histogram: 1 0 0 0 1 0 0 0 1 1
Nghost:        329.750 ave         335 max         323 min
Histogram: 1 0 0 0 1 0 0 0 1 1
Neighs:        545.500 ave         650 max         453 min
Histogram: 1 1 0 0 0 0 0 1 0 1

Total # of neighbors = 2182
Ave neighs/atom = 1.3637500
Neighbor list builds = 135
Dangerous builds = 0

# PART B - MOLECULAR DYNAMICS
# 4) Visualization
thermo 50
dump mydmp all atom 100 dump.lammpstrj

# 5) Run
fix mynve all nve
fix mylgv all langevin 1.0 1.0 0.1 1530917
timestep 0.005
run 10000
Per MPI rank memory allocation (min/avg/max) = 3.113 | 3.114 | 3.114 Mbytes
Step Temp PotEng KinEng TotEng Press 
     384            0  -0.95517615            0  -0.95517615 -0.00029974323 
     400   0.77848006  -0.85953591    1.1669903   0.30745435  0.031798326 
     450    1.0003066  -0.65276584    1.4995221   0.84675628  0.026776867 
     500   0.98410325  -0.55798527    1.4752323   0.91724701  0.023944131 
     550   0.99223093  -0.47681951    1.4874162    1.0105967  0.027597987 
     600   0.98496053  -0.45693462    1.4765174    1.0195828  0.022419467 
     650    1.0146048  -0.42042314     1.520956    1.1005329  0.026074968 
     700   0.98447136  -0.40153134    1.4757841    1.0742528  0.022788904 
     750    1.0165662   -0.3728905    1.5238962    1.1510057  0.024993947 
     800   0.98129703  -0.37166437    1.4710256    1.0993612  0.022693049 
     850   0.99063893  -0.34344378    1.4850297    1.1415859    0.0240991 
     900   0.99542257   -0.3371186    1.4922006     1.155082  0.022372621 
     950   0.96237725  -0.33479402    1.4426636    1.1078696  0.022844319 
    1000    1.0168349  -0.33633314    1.5242991     1.187966  0.024190608 
    1050    1.0199489  -0.32940899    1.5289672    1.1995582  0.022360871 
    1100    1.0004414  -0.30124299    1.4997242    1.1984812  0.023528758 
    1150   0.98261481  -0.29353492     1.473001    1.1794661  0.023872607 
    1200   0.98615236  -0.29233761     1.478304    1.1859664  0.023227195 
    1250    1.0046727  -0.28865315    1.5060672    1.2174141  0.023125168 
    1300    1.0116378   -0.2881487    1.5165083    1.2283596   0.02431871 
    1350    0.9884398  -0.29863158     1.481733    1.1831015  0.021987349 
    1400    1.0026798  -0.28278974    1.5030797    1.2202899  0.022856316 
    1450     1.017156  -0.28709057    1.5247804    1.2376899  0.023223507 
    1500    1.0387258  -0.29197905    1.5571149    1.2651358  0.023123544 
    1550   0.98297282    -0.291595    1.4735377    1.1819427  0.021976891 
    1600   0.98805717  -0.28077328    1.4811594    1.2003862  0.022884123 
    1650    1.0244123  -0.27761686     1.535658    1.2580411  0.023293665 
    1700    0.9841409  -0.27428403    1.4752887    1.2010047  0.021751525 
    1750     1.031284    -0.271635    1.5459591    1.2743241  0.024303746 
    1800    1.0047642  -0.28047965    1.5062044    1.2257247  0.022153913 
    1850   0.99719608  -0.27143426    1.4948593     1.223425  0.021382504 
    1900    1.0148258  -0.26135635    1.5212872    1.2599309  0.023752598 
    1950    1.0220479  -0.27038151    1.5321136    1.2617321  0.022336211 
    2000   0.99183938  -0.25893192    1.4868292    1.2278973  0.024626354 
    2050   0.96788346  -0.27428715    1.4509178    1.1766307  0.021936918 
    2100    1.0273561  -0.27421103     1.540071      1.26586  0.023684109 
    2150    1.0000517  -0.26323017    1.4991399    1.2359098  0.023893141 
    2200   0.99644099   -0.2631867    1.4937273    1.2305406  0.022743465 
    2250   0.99358257  -0.25636858    1.4894424    1.2330738  0.022263734 
    2300    1.0031026  -0.25337768    1.5037135    1.2503359  0.022055571 
    2350    1.0044532  -0.25126828    1.5057382    1.2544699  0.023168282 
    2400    1.0246402  -0.25760294    1.5359997    1.2783968  0.022787917 
    2450   0.98771801  -0.25809842     1.480651    1.2225526  0.023081425 
    2500    1.0073496  -0.26736846      1.51008    1.2427115  0.022571091 
    2550   0.99078088  -0.24802768    1.4852425    1.2372148  0.024075561 
    2600    0.9861367  -0.25739348    1.4782805    1.2208871  0.022894637 
    2650    1.0393564  -0.25023943    1.5580602    1.3078208  0.024990874 
    2700    1.0003863  -0.27209179    1.4996415    1.2275497  0.022431549 
    2750    1.0064304  -0.27271667     1.508702    1.2359854  0.022558139 
    2800   0.99350439  -0.25449692    1.4893252    1.2348282  0.023260361 
    2850    1.0132649  -0.25021147    1.5189474    1.2687359  0.023806284 
    2900    1.0240968  -0.26198859     1.535185    1.2731965  0.023217774 
    2950   0.99934433  -0.25495131    1.4980796    1.2431283  0.022851125 
    3000    1.0020188  -0.25092033    1.5020889    1.2511685  0.023598932 
    3050    1.0365185  -0.24964977     1.553806    1.3041563  0.024533846 
    3100   0.99332517  -0.24188043    1.4890565    1.2471761  0.022973648 
    3150    1.0256733  -0.23520396    1.5375484    1.3023445  0.023331882 
    3200    1.0158672  -0.24239541    1.5228484     1.280453  0.022964863 
    3250   0.95886225  -0.24699177    1.4373944    1.1904027  0.021919142 
    3300    1.0155327   -0.2491737    1.5223469    1.2731732  0.022697489 
    3350    1.0052643  -0.23384047    1.5069541    1.2731136  0.023897559 
    3400    1.0028647  -0.24180744    1.5033569    1.2615494  0.023483883 
    3450    1.0333183  -0.24524559    1.5490087    1.3037631  0.023617612 
    3500    0.9996854  -0.23575762    1.4985909    1.2628333  0.022495014 
    3550   0.98221167   -0.2355316    1.4723967    1.2368651  0.022440969 
    3600   0.96633558  -0.23817185    1.4485974    1.2104256  0.021082579 
    3650   0.99498334  -0.22474848    1.4915422    1.2667937  0.024071222 
    3700    1.0262805  -0.23830425    1.5384586    1.3001544  0.024048583 
    3750    1.0163553  -0.22930962    1.5235801    1.2942705  0.025074007 
    3800   0.98656954  -0.22989492    1.4789294    1.2490345  0.023431734 
    3850    1.0281015    -0.234034    1.5411884    1.3071544  0.022924515 
    3900    1.0021064  -0.21757132    1.5022201    1.2846488  0.024877138 
    3950   0.99532717  -0.23422954    1.4920576    1.2578281   0.02357146 
    4000   0.95849224  -0.23647574    1.4368398     1.200364   0.02240827 
    4050     1.017041  -0.23982454     1.524608    1.2847835  0.022819076 
    4100   0.98469857   -0.2415781    1.4761247    1.2345466  0.021916954 
    4150    1.0243334  -0.23408528    1.5355398    1.3014545  0.023381798 
    4200    1.0196537   -0.2286729    1.5285246    1.2998517  0.022959431 
    4250   0.98771957  -0.22649063    1.4806534    1.2541627  0.022655303 
    4300   0.98425987  -0.22138817    1.4754671    1.2540789  0.023259169 
    4350    1.0062804  -0.22619154    1.5084772    1.2822857  0.022247899 
    4400   0.97619751  -0.22541715    1.4633811    1.2379639  0.022670874 
    4450   0.98164048  -0.22575688    1.4715404    1.2457836  0.022927843 
    4500    0.9912562  -0.22582454     1.485955    1.2601305  0.022928961 
    4550    1.0037403  -0.23435246    1.5046695     1.270317  0.021930866 
    4600    1.0117135  -0.23355225    1.5166217    1.2830695  0.022641602 
    4650    1.0045356  -0.22954054    1.5058616    1.2763211  0.023112284 
    4700    1.0002709  -0.22833054    1.4994686    1.2711381  0.023594383 
    4750    1.0270342  -0.22804456    1.5395885    1.3115439  0.024291698 
    4800    1.0386264  -0.22687178     1.556966    1.3300942  0.024368235 
    4850    0.9778565  -0.22867132     1.465868    1.2371967  0.022639798 
    4900   0.96244141  -0.23141291    1.4427598    1.2113469  0.023230617 
    4950   0.99634524  -0.23166892    1.4935838    1.2619149  0.023662496 
    5000   0.98309518  -0.22645021    1.4737211    1.2472709  0.022991018 
    5050     1.016087  -0.22635282    1.5231779    1.2968251  0.025038124 
    5100   0.98630659  -0.23102899    1.4785352    1.2475062  0.022731729 
    5150   0.96181823  -0.23668931    1.4418256    1.2051363  0.023092522 
    5200    0.9828181  -0.22671882    1.4733058    1.2465869   0.02505897 
    5250    1.0405536  -0.23278362    1.5598549    1.3270713  0.025449417 
    5300    0.9811187  -0.23467985    1.4707582    1.2360784  0.023539472 
    5350   0.99447474  -0.23870876    1.4907798     1.252071  0.024077361 
    5400    1.0103875  -0.24703276    1.5146341    1.2676013  0.022894142 
    5450   0.96619487  -0.23501633    1.4483865    1.2133702  0.022772352 
    5500   0.99115009  -0.23612531    1.4857959    1.2496706  0.022836253 
    5550    1.0020869  -0.23642671    1.5021908    1.2657641  0.022879017 
    5600   0.98011221  -0.23592423    1.4692495    1.2333252  0.022541493 
    5650    1.0003769   -0.2173349    1.4996275    1.2822926  0.026846446 
    5700    1.0110617  -0.23811603    1.5156446    1.2775286  0.022259296 
    5750   0.95839006  -0.22678902    1.4366866    1.2098976  0.022833281 
    5800    1.0226191  -0.23596785      1.53297    1.2970021  0.022664341 
    5850    1.0367402  -0.23608219    1.5541384    1.3180562  0.023924657 
    5900    1.0125997  -0.23712151    1.5179502    1.2808287  0.023189663 
    5950   0.97825418  -0.23583235    1.4664642    1.2306318  0.022127788 
    6000   0.98186802   -0.2443986    1.4718815    1.2274829  0.022606169 
    6050    1.0273758  -0.23741035    1.5401006    1.3026902  0.024236655 
    6100   0.99948353   -0.2359678    1.4982883    1.2623205  0.022691236 
    6150    0.9706644  -0.23786095    1.4550866    1.2172257  0.022484676 
    6200   0.99727455   -0.2352284    1.4949769    1.2597485  0.022108807 
    6250    1.0038502  -0.22227663    1.5048342    1.2825576  0.024076337 
    6300   0.97320981   -0.2299821    1.4589023    1.2289202  0.022982832 
    6350   0.97542837  -0.23137867    1.4622281    1.2308494  0.022190912 
    6400    1.0206132  -0.21702121     1.529963    1.3129418   0.02513451 
    6450   0.98076853  -0.22480986    1.4702333    1.2454235  0.023534917 
    6500    1.0119989  -0.23082741    1.5170496    1.2862222  0.024255365 
    6550    1.0133671   -0.2253973    1.5191006    1.2937033  0.024724552 
    6600   0.98180276  -0.23910572    1.4717837     1.232678  0.022755728 
    6650    1.0298544  -0.23821361    1.5438161    1.3056025  0.023480813 
    6700    1.0143544  -0.23874402    1.5205806    1.2818366  0.023264508 
    6750   0.98154498   -0.2464164    1.4713973    1.2249809  0.021722314 
    6800   0.99074095  -0.24393828    1.4851826    1.2412443  0.022087676 
    6850    1.0092906  -0.23826615    1.5129897    1.2747236  0.023028281 
    6900    1.0289582   -0.2251529    1.5424727    1.3173198  0.025180842 
    6950   0.99828801  -0.22289914    1.4964961     1.273597  0.023559854 
    7000    1.0128881    -0.231505    1.5183826    1.2868776  0.023066366 
    7050    0.9790015  -0.22959472    1.4675844    1.2379897  0.022964308 
    7100    1.0088843  -0.22917226    1.5123806    1.2832083  0.024630567 
    7150    1.0134695  -0.23584231    1.5192541    1.2834118   0.02282423 
    7200   0.95063117  -0.22152433    1.4250555    1.2035312  0.023724257 
    7250   0.97442648  -0.23923862    1.4607262    1.2214876  0.021205407 
    7300    1.0036062  -0.23489071    1.5044684    1.2695776  0.022632007 
    7350    1.0307169  -0.23140421    1.5451091    1.3137049  0.024843742 
    7400    1.0241708  -0.23428308     1.535296    1.3010129  0.023859131 
    7450    1.0185604  -0.23876606    1.5268857    1.2881196   0.02323189 
    7500    1.0069065  -0.23727104    1.5094158    1.2721448  0.023828507 
    7550    1.0191413  -0.23127529    1.5277564    1.2964812  0.023878022 
    7600   0.98595425  -0.24038238     1.478007    1.2376247  0.022451228 
    7650   0.97667611  -0.23852132    1.4640985    1.2255772  0.023012104 
    7700    1.0018736  -0.24165616    1.5018711    1.2602149  0.022547636 
    7750   0.99397904  -0.23810944    1.4900367    1.2519273  0.023981985 
    7800    1.0127609  -0.25148186    1.5181919      1.26671  0.023566083 
    7850    1.0224977  -0.24865189    1.5327879     1.284136  0.023676575 
    7900   0.97137041  -0.24717477    1.4561449    1.2089702   0.02143045 
    7950    1.0333049  -0.23311817    1.5489887    1.3158705  0.023916839 
    8000   0.96207299  -0.22759123    1.4422075    1.2146163  0.022066387 
    8050      1.02873  -0.22819122    1.5421306    1.3139394  0.022752819 
    8100   0.99046574  -0.23470354    1.4847701    1.2500665  0.022565435 
    8150   0.97599824   -0.2317582    1.4630824    1.2313242  0.022728112 
    8200    1.0241679   -0.2468244    1.5352916    1.2884672  0.022195659 
    8250    1.0182647  -0.23766813    1.5264425    1.2887744  0.023125535 
    8300   0.99874624  -0.24467261     1.497183    1.2525104  0.023416267 
    8350   0.99666334  -0.25057183    1.4940606    1.2434888  0.022056014 
    8400    1.0125752  -0.23968999    1.5179135    1.2782235  0.024073941 
    8450    1.0011272  -0.22565739    1.5007522    1.2750948  0.024017154 
    8500    1.0294786  -0.23188005    1.5432528    1.3113728  0.023842381 
    8550    1.0144558  -0.23953453    1.5207326    1.2811981  0.023064129 
    8600    1.0179527  -0.21982698    1.5259747    1.3061478  0.024655169 
    8650    1.0149827  -0.23290756    1.5215224    1.2886149  0.022785019 
    8700   0.97268948   -0.2221578    1.4581223    1.2359645  0.021902897 
    8750    1.0003879  -0.21614562     1.499644    1.2834984  0.023552876 
    8800    1.0047788  -0.22346611    1.5062262    1.2827601   0.02249635 
    8850   0.96798499  -0.21146568      1.45107    1.2396043  0.023770974 
    8900     1.009524   -0.2239415    1.5133395     1.289398  0.023956822 
    8950   0.93806012  -0.22168382    1.4062107    1.1845269  0.021186283 
    9000    1.0124967  -0.23163508    1.5177958    1.2861607   0.02278912 
    9050    1.0158866  -0.22573862    1.5228775    1.2971388   0.02364317 
    9100    1.0155731  -0.21745093    1.5224076    1.3049567  0.024122801 
    9150   0.98672688  -0.22774889    1.4791653    1.2514164  0.021703708 
    9200      1.00332  -0.22273681    1.5040394    1.2813026  0.022960006 
    9250   0.99396019  -0.21846234    1.4900084    1.2715461  0.024255462 
    9300    1.0105961   -0.2278156    1.5149467    1.2871311  0.022542398 
    9350   0.97900906  -0.22133656    1.4675958    1.2462592  0.022558442 
    9400    1.0011398  -0.22101746    1.5007711    1.2797537   0.02195022 
    9450   0.97142003  -0.21068174    1.4562193    1.2455376  0.024269504 
    9500   0.94780148  -0.22201595    1.4208137    1.1987977   0.02253488 
    9550    1.0039528  -0.23141046     1.504988    1.2735775   0.02280549 
    9600    0.9776897  -0.22980593     1.465618     1.235812  0.023150931 
    9650    1.0353696  -0.23421023    1.5520837    1.3178735  0.023207473 
    9700   0.98036431  -0.22486539    1.4696274     1.244762  0.022428167 
    9750    1.0604999  -0.22356734    1.5897557    1.3661883  0.024026521 
    9800    1.0060248  -0.21528928    1.5080941    1.2928048  0.024202633 
    9850   0.99163446  -0.23147473     1.486522    1.2550473  0.023249116 
    9900   0.99641104  -0.22921545    1.4936824     1.264467  0.023017129 
    9950    1.0371927  -0.21884825    1.5548167    1.3359685  0.024322036 
   10000    1.0407565  -0.22082237     1.560159    1.3393366  0.024533637 
   10050    1.0180713  -0.22381871    1.5261526    1.3023339  0.023992385 
   10100    1.0227441  -0.23203979    1.5331573    1.3011175  0.022784382 
   10150   0.95395831  -0.23397157    1.4300431    1.1960716  0.022926779 
   10200    1.0197735  -0.23984214    1.5287042     1.288862  0.022887457 
   10250    1.0299818  -0.23501243    1.5440071    1.3089946  0.024622424 
   10300    1.0043198  -0.23649463    1.5055382    1.2690435   0.02459568 
   10350   0.97769742  -0.23338321    1.4656295    1.2322463  0.023612838 
   10384    1.0310447   -0.2341244    1.5456004     1.311476  0.024196245 
Loop time of 0.623744 on 4 procs for 10000 steps with 1600 atoms

Performance: 6925916.479 tau/day, 16032.214 timesteps/s
93.7% CPU use with 4 MPI tasks x 1 OpenMP threads

MPI task timing breakdown:
Section |  min time  |  avg time  |  max time  |%varavg| %total
---------------------------------------------------------------
Pair    | 0.038216   | 0.041773   | 0.04592    |   1.4 |  6.70
Neigh   | 0.061072   | 0.066114   | 0.071089   |   1.4 | 10.60
Comm    | 0.14404    | 0.15931    | 0.17982    |   3.2 | 25.54
Output  | 0.19176    | 0.19354    | 0.19786    |   0.6 | 31.03
Modify  | 0.14207    | 0.15373    | 0.16296    |   1.9 | 24.65
Other   |            | 0.009284   |            |       |  1.49

Nlocal:        400.000 ave         433 max         367 min
Histogram: 1 0 0 0 1 1 0 0 0 1
Nghost:        348.250 ave         360 max         335 min
Histogram: 1 0 0 0 0 1 1 0 0 1
Neighs:        489.250 ave         539 max         419 min
Histogram: 1 0 0 0 0 1 0 1 0 1

Total # of neighbors = 1957
Ave neighs/atom = 1.2231250
Neighbor list builds = 999
Dangerous builds = 998

Total wall time: 0:00:00
